\ Model prob_18
\ LP format - for model browsing. Use MPS format to capture full model detail.
Minimize
  6 Eggs + 10 Rice + Chicken + 7 Broccoli
Subject To
 R0: 4 Eggs + Rice + 10 Chicken + 8 Broccoli >= 93
 R1: 13 Eggs + 13 Rice + 29 Chicken + 26 Broccoli >= 165
 R2: 238 Eggs + 85 Rice + 146 Chicken + 139 Broccoli >= 1553
Bounds
Generals
 Eggs Rice Chicken Broccoli
End
